# Solution for model r5_t18_m8_9
# Finished Task: 18 / 18
# Makespan: 553.0, Total Distance: 436.0, Total Time: 23.0211
# R O S F
0 0 14 0.0 0.0
1 1 10 0.0 0.0
2 2 22 0.0 0.0
3 3 8 0.0 0.0
4 4 5 0.0 0.0
5 4 9 54.0 82.0
6 4 16 384.0 412.0
7 2 11 470.0 499.0
8 3 18 70.0 94.0
9 4 21 154.0 174.0
10 1 19 456.0 485.0
11 2 -1 527.0 553.0
12 3 -1 499.0 528.0
13 0 -1 518.0 553.0
14 0 17 398.0 422.0
15 4 -1 528.0 553.0
16 4 20 433.0 456.0
17 0 13 459.0 488.0
18 3 12 255.0 287.0
19 1 -1 526.0 553.0
20 4 15 498.0 519.0
21 4 6 327.0 365.0
22 2 7 412.0 433.0
